(declare-const a Real)
(declare-const d Real)
(declare-const b Real)
(declare-const c Real)
(declare-const s Real)
(assert (= s (+ (+ (+ (/ a (+ (+ a b) d)) (/ b (+ (+ a b) c))) (/ c (+ (+ b c) d))) (/ d (+ (+ a c) d)))))
(assert (and (< 0 a) (and (< 0 b) (and (< 0 c) (< 0 d)))))
(assert (not (and (< 1 s) (< s 2))))
(check-sat)